
%FILE DATA:	Soccer Computational Problem for MiniZinc Models	%
%AUTHOR:	Jack Wall	%
%CONTACT:  	116397063@umail.ucc.ie			%
%LAST UPDATE:	03/03/2020, 12:29:48						%
%DESCRIPTION: 	65 games played with 25 games left				%


n=10; %number of teams

%Games to play
games=[|8,10|2,4|8,3|2,3|1,2|5,9|4,1|4,7|8,1|4,10|6,1|10,8|4,8|6,3|5,1|10,7|3,2|3,6|4,9|8,7|6,7|10,9|9,7|3,8|7,1|];

%Initial points
iPoints=[15,20,14,14,19,24,17,16,27,17];

%POSITION CONSTRAINTS
% [|teamID, operator, position|...]
% operators index:
%  1 for =  operator
%  2 for >  operator
%  3 for >= operator
%  4 for <  operator
%  5 for <= operator
positionConstraints=[|9,3,1|6,1,2|];